
Gurobi 9.1.1 (win64) logging started Sun Mar 13 14:29:52 2022

Changed value of parameter LogFile to ./Log/Pattern_Appro_solver_600_order_60_batch.log
   Prev:   Default: 
Gurobi Optimizer version 9.1.1 build v9.1.1rc0 (win64)
Thread count: 6 physical cores, 12 logical processors, using up to 12 threads
Optimize a model with 3323 rows, 25860 columns and 121980 nonzeros
Model fingerprint: 0x3625a8f9
Variable types: 0 continuous, 25860 integer (22380 binary)
Coefficient statistics:
  Matrix range     [1e+00, 1e+01]
  Objective range  [1e+00, 4e+01]
  Bounds range     [1e+00, 2e+01]
  RHS range        [1e+00, 2e+01]
Found heuristic solution: objective 12667.000000
Presolve removed 284 rows and 1968 columns
Presolve time: 0.13s
Presolved: 3039 rows, 23892 columns, 108002 nonzeros
Variable types: 0 continuous, 23892 integer (20797 binary)

Root relaxation: objective 2.790667e+03, 27504 iterations, 2.39 seconds

    Nodes    |    Current Node    |     Objective Bounds      |     Work
 Expl Unexpl |  Obj  Depth IntInf | Incumbent    BestBd   Gap | It/Node Time

     0     0 2790.66667    0  548 12667.0000 2790.66667  78.0%     -    2s
H    0     0                    8097.0000000 2790.66667  65.5%     -    2s
H    0     0                    7723.0000000 2790.66667  63.9%     -    5s
H    0     0                    7610.0000000 2790.66667  63.3%     -    6s
     0     0 2885.37509    0  833 7610.00000 2885.37509  62.1%     -    7s
H    0     0                    7262.0000000 2885.37509  60.3%     -    7s
     0     0 2887.36599    0  853 7262.00000 2887.36599  60.2%     -    7s
     0     0 2887.52917    0  863 7262.00000 2887.52917  60.2%     -    7s
     0     0 2887.53048    0  861 7262.00000 2887.53048  60.2%     -    7s
     0     0 2964.02958    0 1137 7262.00000 2964.02958  59.2%     -    8s
     0     0 2971.40088    0 1135 7262.00000 2971.40088  59.1%     -    8s
     0     0 2973.35637    0 1194 7262.00000 2973.35637  59.1%     -    8s
     0     0 2974.09258    0 1166 7262.00000 2974.09258  59.0%     -    8s
     0     0 2974.10010    0 1135 7262.00000 2974.10010  59.0%     -    8s
H    0     0                    7174.0000000 2974.10010  58.5%     -    8s
H    0     0                    6930.0000000 2974.10010  57.1%     -    9s
     0     0 3019.49840    0 1374 6930.00000 3019.49840  56.4%     -    9s
H    0     0                    6895.0000000 3019.49840  56.2%     -   10s
H    0     0                    6768.0000000 3019.49840  55.4%     -   10s
     0     0 3024.35717    0 1422 6768.00000 3024.35717  55.3%     -   10s
     0     0 3027.03946    0 1437 6768.00000 3027.03946  55.3%     -   11s
H    0     0                    6745.0000000 3027.03946  55.1%     -   11s
     0     0 3028.61589    0 1437 6745.00000 3028.61589  55.1%     -   11s
     0     0 3029.03937    0 1439 6745.00000 3029.03937  55.1%     -   11s
     0     0 3029.10284    0 1437 6745.00000 3029.10284  55.1%     -   11s
H    0     0                    6710.0000000 3029.10284  54.9%     -   12s
H    0     0                    6661.0000000 3029.10284  54.5%     -   14s
     0     0 3065.67303    0 1838 6661.00000 3065.67303  54.0%     -   14s
     0     0 3073.73435    0 1958 6661.00000 3073.73435  53.9%     -   16s
     0     0 3076.25641    0 1920 6661.00000 3076.25641  53.8%     -   18s
     0     0 3078.75137    0 1905 6661.00000 3078.75137  53.8%     -   19s
     0     0 3079.28395    0 2025 6661.00000 3079.28395  53.8%     -   20s
     0     0 3080.06114    0 1962 6661.00000 3080.06114  53.8%     -   21s
     0     0 3080.10870    0 1971 6661.00000 3080.10870  53.8%     -   21s
     0     0 3108.18939    0 2310 6661.00000 3108.18939  53.3%     -   26s
H    0     0                    6571.0000000 3108.18939  52.7%     -   27s
     0     0 3116.02236    0 2419 6571.00000 3116.02236  52.6%     -   29s
H    0     0                    6509.0000000 3116.02236  52.1%     -   31s
     0     0 3119.03456    0 2488 6509.00000 3119.03456  52.1%     -   31s
     0     0 3120.41278    0 2490 6509.00000 3120.41278  52.1%     -   33s
     0     0 3120.79866    0 2521 6509.00000 3120.79866  52.1%     -   34s
     0     0 3120.86169    0 2586 6509.00000 3120.86169  52.1%     -   35s
     0     0 3138.77841    0 3156 6509.00000 3138.77841  51.8%     -   42s
H    0     0                    6493.0000000 3138.77841  51.7%     -   43s
     0     0 3145.64900    0 3266 6493.00000 3145.64900  51.6%     -   49s
     0     0 3147.80400    0 3325 6493.00000 3147.80400  51.5%     -   53s
     0     0 3149.28515    0 3436 6493.00000 3149.28515  51.5%     -   57s
     0     0 3149.66358    0 3426 6493.00000 3149.66358  51.5%     -   60s

Cutting planes:
  Gomory: 99
  Cover: 2252
  Implied bound: 168
  Clique: 469
  MIR: 45
  StrongCG: 8
  Flow cover: 158
  Zero half: 88
  Relax-and-lift: 9

Explored 1 nodes (94969 simplex iterations) in 60.02 seconds
Thread count was 12 (of 12 available processors)

Solution count 10: 6493 6509 6571 ... 7174

Time limit reached
Best objective 6.493000000000e+03, best bound 3.150000000000e+03, gap 51.4862%

Gurobi 9.1.1 (win64) logging started Sun Mar 13 14:38:19 2022

Changed value of parameter LogFile to ./Log/Pattern_Appro_solver_600_order_60_batch.log
   Prev:   Default: 
Gurobi Optimizer version 9.1.1 build v9.1.1rc0 (win64)
Thread count: 6 physical cores, 12 logical processors, using up to 12 threads
Optimize a model with 3318 rows, 25560 columns and 119940 nonzeros
Model fingerprint: 0x3e49bb87
Variable types: 0 continuous, 25560 integer (22260 binary)
Coefficient statistics:
  Matrix range     [1e+00, 1e+01]
  Objective range  [1e+00, 4e+01]
  Bounds range     [1e+00, 1e+01]
  RHS range        [1e+00, 1e+01]
Found heuristic solution: objective 12648.000000
Presolve removed 279 rows and 2079 columns
Presolve time: 0.12s
Presolved: 3039 rows, 23481 columns, 106439 nonzeros
Variable types: 0 continuous, 23481 integer (20506 binary)

Root relaxation: objective 2.634500e+03, 26784 iterations, 2.63 seconds

    Nodes    |    Current Node    |     Objective Bounds      |     Work
 Expl Unexpl |  Obj  Depth IntInf | Incumbent    BestBd   Gap | It/Node Time

     0     0 2634.50000    0  535 12648.0000 2634.50000  79.2%     -    2s
H    0     0                    8169.0000000 2634.50000  67.8%     -    2s
H    0     0                    7953.0000000 2634.50000  66.9%     -    4s
H    0     0                    7844.0000000 2634.50000  66.4%     -    7s
H    0     0                    7403.0000000 2640.05556  64.3%     -    7s
H    0     0                    7182.0000000 2640.05556  63.2%     -    7s
H    0     0                    6989.0000000 2780.36173  60.2%     -    7s
     0     0 2780.36173    0  910 6989.00000 2780.36173  60.2%     -    7s
H    0     0                    6928.0000000 2780.36173  59.9%     -    7s
H    0     0                    6903.0000000 2780.36173  59.7%     -    8s
     0     0 2780.36173    0 1095 6903.00000 2780.36173  59.7%     -    8s
     0     0 2787.58473    0 1057 6903.00000 2787.58473  59.6%     -    8s
     0     0 2789.20771    0 1059 6903.00000 2789.20771  59.6%     -    8s
     0     0 2789.26512    0 1025 6903.00000 2789.26512  59.6%     -    8s
     0     0 2789.29482    0 1025 6903.00000 2789.29482  59.6%     -    8s
H    0     0                    6852.0000000 2789.29482  59.3%     -    9s
H    0     0                    6839.0000000 2789.29482  59.2%     -   10s
     0     0 2826.77389    0 1292 6839.00000 2826.77389  58.7%     -   10s
     0     0 2835.49037    0 1344 6839.00000 2835.49037  58.5%     -   10s
H    0     0                    6783.0000000 2835.49037  58.2%     -   11s
     0     0 2840.81515    0 1377 6783.00000 2840.81515  58.1%     -   11s
     0     0 2842.59386    0 1348 6783.00000 2842.59386  58.1%     -   11s
     0     0 2843.09009    0 1366 6783.00000 2843.09009  58.1%     -   12s
     0     0 2843.14330    0 1355 6783.00000 2843.14330  58.1%     -   12s
H    0     0                    6682.0000000 2843.14330  57.5%     -   16s
H    0     0                    6675.0000000 2843.14330  57.4%     -   16s
     0     0 2875.41202    0 1969 6675.00000 2875.41202  56.9%     -   16s
H    0     0                    6577.0000000 2875.41202  56.3%     -   16s
H    0     0                    6535.0000000 2875.41202  56.0%     -   18s
H    0     0                    6524.0000000 2875.41202  55.9%     -   18s
     0     0 2883.07048    0 2069 6524.00000 2883.07048  55.8%     -   19s
H    0     0                    6484.0000000 2883.07048  55.5%     -   20s
     0     0 2885.48348    0 2021 6484.00000 2885.48348  55.5%     -   21s
     0     0 2886.39063    0 2144 6484.00000 2886.39063  55.5%     -   21s
H    0     0                    6346.0000000 2886.39063  54.5%     -   22s
     0     0 2886.65058    0 2089 6346.00000 2886.65058  54.5%     -   22s
     0     0 2886.76601    0 2054 6346.00000 2886.76601  54.5%     -   22s
     0     0 2913.61297    0 2300 6346.00000 2913.61297  54.1%     -   27s
     0     0 2924.13831    0 2500 6346.00000 2924.13831  53.9%     -   31s
     0     0 2928.24031    0 2584 6346.00000 2928.24031  53.9%     -   34s
     0     0 2929.54079    0 2580 6346.00000 2929.54079  53.8%     -   37s
     0     0 2929.90175    0 2614 6346.00000 2929.90175  53.8%     -   39s
H    0     0                    6298.0000000 2929.90175  53.5%     -   40s
     0     0 2930.27787    0 2685 6298.00000 2930.27787  53.5%     -   40s
     0     0 2930.36588    0 2609 6298.00000 2930.36588  53.5%     -   41s
H    0     0                    6288.0000000 2930.36588  53.4%     -   50s
     0     0 2947.57874    0 3105 6288.00000 2947.57874  53.1%     -   50s
H    0     0                    6262.0000000 2947.57874  52.9%     -   51s
     0     0 2958.26538    0 3297 6262.00000 2958.26538  52.8%     -   60s

Cutting planes:
  Gomory: 39
  Cover: 1924
  Implied bound: 72
  Clique: 390
  MIR: 52
  StrongCG: 2
  Flow cover: 119
  Zero half: 62
  Relax-and-lift: 2

Explored 1 nodes (86885 simplex iterations) in 60.08 seconds
Thread count was 12 (of 12 available processors)

Solution count 10: 6262 6288 6298 ... 6682

Time limit reached
Best objective 6.262000000000e+03, best bound 2.959000000000e+03, gap 52.7467%

Gurobi 9.1.1 (win64) logging started Sun Mar 13 14:56:16 2022

Changed value of parameter LogFile to ./Log/Pattern_Appro_solver_600_order_60_batch.log
   Prev:   Default: 
Gurobi Optimizer version 9.1.1 build v9.1.1rc0 (win64)
Thread count: 6 physical cores, 12 logical processors, using up to 12 threads
Optimize a model with 3331 rows, 26340 columns and 122340 nonzeros
Model fingerprint: 0xfb093838
Variable types: 0 continuous, 26340 integer (22860 binary)
Coefficient statistics:
  Matrix range     [1e+00, 1e+01]
  Objective range  [1e+00, 4e+01]
  Bounds range     [1e+00, 2e+01]
  RHS range        [1e+00, 2e+01]
Found heuristic solution: objective 12488.000000
Presolve removed 291 rows and 2207 columns
Presolve time: 0.14s
Presolved: 3040 rows, 24133 columns, 107258 nonzeros
Variable types: 0 continuous, 24133 integer (21035 binary)

Root relaxation: objective 2.774000e+03, 32389 iterations, 2.98 seconds

    Nodes    |    Current Node    |     Objective Bounds      |     Work
 Expl Unexpl |  Obj  Depth IntInf | Incumbent    BestBd   Gap | It/Node Time

     0     0 2774.00000    0  523 12488.0000 2774.00000  77.8%     -    3s
H    0     0                    7830.0000000 2774.00000  64.6%     -    3s
H    0     0                    7819.0000000 2774.00000  64.5%     -    3s
H    0     0                    7621.0000000 2774.00000  63.6%     -    5s
H    0     0                    7618.0000000 2774.00000  63.6%     -    6s
H    0     0                    7526.0000000 2774.00000  63.1%     -    6s
H    0     0                    7482.0000000 2774.00000  62.9%     -    6s
H    0     0                    7358.0000000 2774.00000  62.3%     -    6s
H    0     0                    7234.0000000 2774.00000  61.7%     -    6s
H    0     0                    6723.0000000 2774.00000  58.7%     -    6s
H    0     0                    6399.0000000 2774.00000  56.6%     -    6s
H    0     0                    6300.0000000 2774.00000  56.0%     -    6s
     0     0 2849.71355    0  817 6300.00000 2849.71355  54.8%     -    6s
H    0     0                    6233.0000000 2849.71355  54.3%     -    6s
     0     0 2850.63477    0  838 6233.00000 2850.63477  54.3%     -    6s
     0     0 2850.68786    0  842 6233.00000 2850.68786  54.3%     -    6s
     0     0 2900.48299    0  979 6233.00000 2900.48299  53.5%     -    7s
     0     0 2904.83877    0 1016 6233.00000 2904.83877  53.4%     -    7s
     0     0 2907.13299    0 1011 6233.00000 2907.13299  53.4%     -    7s
     0     0 2907.23737    0 1013 6233.00000 2907.23737  53.4%     -    7s
     0     0 2907.30557    0 1030 6233.00000 2907.30557  53.4%     -    7s
     0     0 2907.98021    0  992 6233.00000 2907.98021  53.3%     -    7s
     0     0 2907.99422    0 1035 6233.00000 2907.99422  53.3%     -    8s
     0     0 2945.31831    0 1219 6233.00000 2945.31831  52.7%     -    9s
H    0     0                    6210.0000000 2945.31831  52.6%     -    9s
H    0     0                    6173.0000000 2945.31831  52.3%     -    9s
     0     0 2952.40536    0 1265 6173.00000 2952.40536  52.2%     -    9s
     0     0 2954.63188    0 1262 6173.00000 2954.63188  52.1%     -   10s
     0     0 2955.56770    0 1295 6173.00000 2955.56770  52.1%     -   10s
     0     0 2956.20209    0 1292 6173.00000 2956.20209  52.1%     -   10s
     0     0 2956.59731    0 1343 6173.00000 2956.59731  52.1%     -   10s
     0     0 2956.59859    0 1331 6173.00000 2956.59859  52.1%     -   10s
     0     0 2988.19870    0 1591 6173.00000 2988.19870  51.6%     -   12s
     0     0 2995.17010    0 1662 6173.00000 2995.17010  51.5%     -   14s
     0     0 2997.53633    0 1643 6173.00000 2997.53633  51.4%     -   14s
     0     0 2998.40727    0 1751 6173.00000 2998.40727  51.4%     -   15s
     0     0 2999.32030    0 1714 6173.00000 2999.32030  51.4%     -   16s
     0     0 2999.88159    0 1728 6173.00000 2999.88159  51.4%     -   16s
     0     0 3000.32288    0 1716 6173.00000 3000.32288  51.4%     -   17s
H    0     0                    6152.0000000 3000.32288  51.2%     -   18s
     0     0 3001.09651    0 1732 6152.00000 3001.09651  51.2%     -   18s
     0     0 3001.46402    0 1679 6152.00000 3001.46402  51.2%     -   18s
     0     0 3001.58703    0 1673 6152.00000 3001.58703  51.2%     -   18s
H    0     0                    6148.0000000 3001.58703  51.2%     -   23s
     0     0 3020.37649    0 2004 6148.00000 3020.37649  50.9%     -   23s
H    0     0                    6115.0000000 3020.37649  50.6%     -   24s
     0     0 3026.07660    0 2126 6115.00000 3026.07660  50.5%     -   27s
     0     0 3027.63395    0 2268 6115.00000 3027.63395  50.5%     -   29s
     0     0 3028.54665    0 2091 6115.00000 3028.54665  50.5%     -   31s
H    0     0                    6105.0000000 3028.54665  50.4%     -   32s
     0     0 3028.98581    0 2202 6105.00000 3028.98581  50.4%     -   32s
     0     0 3029.24028    0 2250 6105.00000 3029.24028  50.4%     -   33s
     0     0 3029.29524    0 2298 6105.00000 3029.29524  50.4%     -   33s
     0     0 3045.26111    0 2708 6105.00000 3045.26111  50.1%     -   40s
H    0     0                    6092.0000000 3045.26111  50.0%     -   45s
     0     0 3051.72161    0 2702 6092.00000 3051.72161  49.9%     -   45s
H    0     0                    6091.0000000 3051.72161  49.9%     -   50s
     0     0 3053.80581    0 2931 6091.00000 3053.80581  49.9%     -   50s
H    0     0                    6067.0000000 3053.80581  49.7%     -   54s
     0     0 3054.48357    0 2937 6067.00000 3054.48357  49.7%     -   54s
H    0     0                    6058.0000000 3054.48357  49.6%     -   57s
     0     0 3055.28104    0 2819 6058.00000 3055.28104  49.6%     -   57s
     0     0 3055.92187    0 3003 6058.00000 3055.92187  49.6%     -   59s
     0     0          -    0      6058.00000 3055.92187  49.6%     -   60s

Cutting planes:
  Gomory: 51
  Cover: 2111
  Implied bound: 118
  Clique: 440
  MIR: 66
  Flow cover: 140
  Zero half: 80
  Relax-and-lift: 4

Explored 1 nodes (101864 simplex iterations) in 60.02 seconds
Thread count was 12 (of 12 available processors)

Solution count 10: 6058 6067 6091 ... 6210

Time limit reached
Best objective 6.058000000000e+03, best bound 3.056000000000e+03, gap 49.5543%
